(declare-const v0 Bool)
(declare-const v1 Bool)
(declare-const v2 Bool)
(declare-const v3 Bool)
(declare-const v4 Bool)
(assert (edge v0 (or v1 v2)))
(assert (edge (not v1) (not v0)))
(assert (edge (or (not v0) (not v2)) (not v3)))
(assert (edge (or v1 v3 (not v4)) (not v2)))
(assert (edge true (or v2 (not v0))))
(assert (not (edge (or v1 v2 (not v0)) (not v1))))